************************************************************************
file with basedata            : j60_18.bas
initial value random generator: 223416106
************************************************************************
projects                      :  1
jobs (incl. supersource/sink ):  62
horizon                       :  332
RESOURCES
  - renewable                 :  4   R
  - nonrenewable              :  0   N
  - doubly constrained        :  0   D
************************************************************************
PROJECT INFORMATION:
pronr.  #jobs rel.date duedate tardcost  MPM-Time
    1     60      0       78       45       78
************************************************************************
PRECEDENCE RELATIONS:
jobnr.    #modes  #successors   successors
   1        1          3           2   3   4
   2        1          2          12  42
   3        1          3           5  14  20
   4        1          2          16  23
   5        1          3           6   7   8
   6        1          1           9
   7        1          2          13  33
   8        1          2          11  29
   9        1          1          10
  10        1          2          38  61
  11        1          1          26
  12        1          3          18  43  52
  13        1          3          15  17  19
  14        1          1          24
  15        1          1          40
  16        1          1          53
  17        1          2          21  35
  18        1          1          36
  19        1          1          48
  20        1          2          30  32
  21        1          1          22
  22        1          3          27  36  37
  23        1          1          55
  24        1          3          25  28  41
  25        1          2          45  57
  26        1          1          49
  27        1          1          29
  28        1          1          37
  29        1          2          56  57
  30        1          1          31
  31        1          2          33  40
  32        1          3          34  39  46
  33        1          1          43
  34        1          1          44
  35        1          2          47  51
  36        1          1          58
  37        1          1          60
  38        1          1          41
  39        1          1          59
  40        1          1          60
  41        1          2          45  47
  42        1          2          44  53
  43        1          2          49  56
  44        1          1          50
  45        1          1          50
  46        1          1          49
  47        1          1          54
  48        1          2          50  55
  49        1          1          59
  50        1          1          51
  51        1          1          54
  52        1          1          59
  53        1          2          54  57
  54        1          1          58
  55        1          1          56
  56        1          1          58
  57        1          1          61
  58        1          1          60
  59        1          1          62
  60        1          1          62
  61        1          1          62
  62        1          0        
************************************************************************
REQUESTS/DURATIONS:
jobnr. mode duration  R 1  R 2  R 3  R 4
------------------------------------------------------------------------
  1      1     0       0    0    0    0
  2      1     6       0   10    0    0
  3      1     2       0    0    7    0
  4      1     3       0    0    8    0
  5      1     4       8    0    0    0
  6      1     6       0    0    5    0
  7      1     8       0    0    8    0
  8      1     5       0    0    4    0
  9      1     2       0    0    4    0
 10      1     6       2    0    0    0
 11      1     7      10    0    0    0
 12      1     2       2    0    0    0
 13      1     2       9    0    0    0
 14      1     1       0    0    0    6
 15      1     9       0    0    7    0
 16      1     7       0    0    0    4
 17      1     4       4    0    0    0
 18      1     2       0   10    0    0
 19      1     9       0    0    0    6
 20      1     1       0    0    0    8
 21      1    10       0    7    0    0
 22      1     7       0    0    5    0
 23      1     9       3    0    0    0
 24      1     7       0    0    2    0
 25      1     8       9    0    0    0
 26      1     4       0    0    1    0
 27      1     1       2    0    0    0
 28      1     3       5    0    0    0
 29      1     6       0    0    0    3
 30      1     5       4    0    0    0
 31      1     5       0    0    8    0
 32      1     1       0    5    0    0
 33      1     3       0    0    0    4
 34      1     9       0    0   10    0
 35      1     5       0    6    0    0
 36      1     7       0    0    5    0
 37      1     7       0    1    0    0
 38      1     7       0    3    0    0
 39      1     1       0    1    0    0
 40      1     6       8    0    0    0
 41      1    10       0    0    0    3
 42      1    10       0    7    0    0
 43      1     9       0    0    5    0
 44      1     7       0    0    3    0
 45      1     9       0    6    0    0
 46      1    10       0    0    0    3
 47      1     3       5    0    0    0
 48      1     5       0    3    0    0
 49      1     4       7    0    0    0
 50      1     3       0    0    0    6
 51      1     9       0    0    0    2
 52      1     1       8    0    0    0
 53      1     2       0    5    0    0
 54      1     3       9    0    0    0
 55      1     6       0    8    0    0
 56      1     4       0    4    0    0
 57      1    10       0    0    0   10
 58      1    10      10    0    0    0
 59      1     8       0    7    0    0
 60      1     7       0    0    0    5
 61      1     5       0    0    0    6
 62      1     0       0    0    0    0
************************************************************************
RESOURCEAVAILABILITIES:
  R 1  R 2  R 3  R 4
   20   14   24   13
************************************************************************
